\* Problem: Unknown *\

Maximize
 obj: + xp_0_0 + xp_1_0 + xp_1_1 + xp_2_0 + xp_2_1 + xp_3_0 + xp_3_1
 + xp_4_0 + xp_5_0 + xp_6_0 + xp_7_0 + xp_8_0 + xp_9_0 + xp_9_1
 + xp_10_0 + xp_11_0 + xp_11_1 + xp_12_0 + xp_12_1 + xp_13_0 + xp_13_1
 + xp_13_2 + xp_14_0 + xp_14_1 + xp_15_0 + xp_16_0 + xp_17_0 + xp_17_1
 + xp_18_0 + xp_18_1 + xp_18_2 + xp_19_0 + xp_19_1 + xp_20_0 + xp_21_0
 + xp_22_0 + xp_22_1 + xp_23_0 + xp_24_0 + xp_24_1 + xp_24_2 + xp_25_0
 + xp_26_0 + xp_26_1 + xp_26_2 + xp_27_0 + xp_28_0 + xp_28_1 + xp_29_0
 + xp_30_0 + xp_30_1 + xp_30_2 + xp_31_0 + xp_32_0 + xp_32_1 + xp_33_0
 + xp_34_0 + xp_34_1 + xp_35_0 + xp_36_0 + xp_37_0 + xp_38_0 + xp_38_1
 + xp_39_0 + xp_40_0 + xp_40_1 + xp_40_2 + xp_41_0 + xp_41_1 + xp_42_0
 + xp_42_1 + xp_42_2 + xp_43_0 + xp_44_0 + xp_45_0 + xp_45_1 + xp_45_2
 + xp_46_0 + xp_47_0 + xp_48_0 + xp_48_1 + xp_49_0 + xp_50_0 + xp_50_1
 + xp_51_0 + xp_52_0 + xp_53_0 + xp_53_1 + xp_54_0 + xp_55_0 + xp_56_0
 + xp_57_0 + xp_57_1 + xp_58_0 + xp_59_0 + xp_60_0 + xp_60_1 + xp_61_0
 + xp_61_1 + xp_62_0 + xp_63_0 + xp_63_1 + xp_64_0 + xp_65_0 + xp_66_0
 + xp_67_0 + xp_67_1 + xp_68_0 + xp_68_1 + xp_69_0 + xp_70_0 + xp_71_0
 + xp_72_0 + xp_73_0 + xp_74_0 + xp_75_0 + xp_76_0 + xp_77_0 + xp_77_1
 + xp_77_2 + xp_78_0 + xp_78_1 + xp_78_2 + xp_78_3 + xp_79_0 + xp_79_1
 + xp_80_0 + xp_80_1 + xp_81_0 + xp_81_1 + xp_82_0 + xp_82_1 + xp_83_0
 + xp_83_1 + xp_84_0 + xp_85_0 + xp_85_1 + xp_85_2 + xp_86_0 + xp_86_1
 + xp_87_0 + xp_88_0 + xp_88_1 + xp_89_0 + xp_90_0 + xp_90_1 + xp_91_0
 + xp_91_1 + xp_91_2 + xp_92_0 + xp_93_0 + xp_94_0 + xp_94_1 + xp_94_2
 + xp_95_0 + xp_95_1 + xp_96_0 + xp_97_0 + xp_98_0 + xp_98_1 + xp_98_2
 + xp_99_0 + xp_99_1 + xp_99_2 + xp_100_0 + xp_101_0 + xp_102_0
 + xp_103_0 + xp_104_0 + xp_104_1 + xp_105_0 + xp_105_1 + xp_106_0
 + xp_106_1 + xp_107_0 + xp_108_0 + xp_108_1 + xp_108_2 + xp_109_0
 + xp_109_1 + xp_110_0 + xp_111_0 + xp_111_1 + xp_112_0 + xp_112_1
 + xp_113_0 + xp_114_0 + xp_115_0 + xp_115_1 + xp_116_0 + xp_116_1
 + xp_117_0 + xp_118_0 + xp_119_0 + xp_119_1 + xp_119_2 + xp_120_0
 + xp_121_0 + xp_122_0 + xp_123_0 + xp_123_1 + xp_124_0 + xp_124_1
 + xp_125_0 + xp_125_1 + xp_126_0 + xp_126_1 + xp_126_2 + xp_127_0
 + xp_127_1 + xp_128_0 + xp_128_1 + xp_128_2 + xp_129_0 + xp_129_1
 + xp_130_0 + xp_131_0 + xp_131_1 + xp_131_2

Subject To
 r_1: + xp_128_2 + xp_128_1 + xp_123_1 + xp_122_0 + xp_121_0 + xp_108_1
 + xp_107_0 + xp_78_3 + xp_67_1 + xp_57_1 + xp_40_2 + xp_40_1 + xp_25_0
 + xp_22_1 + xp_18_2 + xp_18_1 + xp_16_0 + xp_13_2 + xp_13_1 + xp_4_0
 <= 39327.3986152324
 r_2: + xp_131_2 + xp_131_0 + xp_127_0 + xp_126_1 + xp_120_0 + xp_94_2
 + xp_94_1 + xp_93_0 + xp_90_1 + xp_85_2 + xp_85_1 + xp_85_0 + xp_77_2
 + xp_77_1 + xp_75_0 + xp_71_0 + xp_66_0 + xp_65_0 + xp_61_1 + xp_55_0
 + xp_52_0 + xp_48_1 + xp_48_0 + xp_42_2 + xp_42_1 + xp_38_1 + xp_32_0
 + xp_28_1 + xp_28_0 + xp_24_2 + xp_24_0 + xp_19_1 + xp_19_0 + xp_12_1
 + xp_1_1 <= 34953.0251785043
 r_3: + xp_124_1 + xp_114_0 + xp_105_1 + xp_91_2 + xp_85_2 + xp_83_1
 + xp_76_0 + xp_48_1 + xp_41_1 + xp_34_0 + xp_30_2 + xp_26_2 + xp_24_2
 <= 37964.8842777334
 r_4: + xp_119_2 + xp_117_0 + xp_104_1 + xp_95_1 + xp_95_0 + xp_91_1
 + xp_91_0 + xp_88_1 + xp_84_0 + xp_79_1 + xp_79_0 + xp_46_0 + xp_43_0
 + xp_40_2 + xp_40_1 + xp_40_0 + xp_34_1 <= 35837.0814592704
 r_5: + xp_130_0 + xp_119_2 + xp_104_1 + xp_99_0 + xp_88_1 + xp_7_0
 + xp_2_0 <= 37964.8842777334
 r_6: + xp_126_2 + xp_119_0 + xp_114_0 + xp_91_2 + xp_83_1 + xp_83_0
 + xp_82_1 + xp_81_0 + xp_70_0 + xp_68_1 + xp_53_0 + xp_48_1 + xp_45_0
 + xp_34_0 + xp_32_1 + xp_30_2 + xp_30_1 <= 39820.1058201058
 r_7: + xp_119_1 + xp_112_1 + xp_111_1 + xp_104_0 + xp_88_0 + xp_82_0
 + xp_81_1 + xp_78_2 + xp_53_1 + xp_50_1 + xp_45_2 + xp_45_1 + xp_44_0
 + xp_27_0 + xp_18_2 + xp_18_1 + xp_18_0 + xp_3_1 <= 35837.0814592704
 r_8: + xp_131_2 + xp_131_0 + xp_127_0 + xp_126_1 + xp_120_0 + xp_118_0
 + xp_103_0 + xp_94_2 + xp_94_1 + xp_90_1 + xp_77_2 + xp_77_1 + xp_71_0
 + xp_61_1 + xp_55_0 + xp_42_2 + xp_42_1 + xp_38_1 + xp_32_0 + xp_24_2
 + xp_24_0 + xp_12_1 + xp_1_1 <= 39327.3986152324
 r_9: + xp_131_1 + xp_127_1 + xp_123_1 + xp_122_0 + xp_108_1 + xp_78_3
 + xp_77_0 + xp_67_1 + xp_57_1 + xp_42_0 + xp_33_0 + xp_32_1 + xp_24_1
 <= 39327.3986152324
 r_10: + xp_112_1 + xp_111_1 + xp_106_0 + xp_99_0 + xp_98_0 + xp_94_1
 + xp_88_1 + xp_88_0 + xp_85_0 + xp_78_2 + xp_50_1 + xp_26_0 + xp_24_0
 + xp_8_0 + xp_7_0 + xp_3_1 + xp_2_0 <= 39820.1058201058
 r_11: + xp_119_0 + xp_112_0 + xp_111_0 + xp_91_2 + xp_82_1 + xp_81_0
 + xp_78_3 + xp_78_1 + xp_78_0 + xp_59_0 + xp_53_0 + xp_50_0 + xp_49_0
 + xp_45_0 + xp_34_0 + xp_4_0 + xp_3_0 <= 36327.4587833997
 r_12: + xp_129_1 + xp_128_1 + xp_128_0 + xp_123_0 + xp_119_1 + xp_117_0
 + xp_112_1 + xp_111_1 + xp_108_2 + xp_101_0 + xp_95_0 + xp_91_1
 + xp_82_0 + xp_81_1 + xp_80_1 + xp_79_1 + xp_78_2 + xp_78_0 + xp_73_0
 + xp_63_1 + xp_60_1 + xp_50_1 + xp_46_0 + xp_45_1 + xp_44_0 + xp_40_1
 + xp_40_0 + xp_18_1 + xp_18_0 + xp_17_1 + xp_15_0 + xp_14_0 + xp_13_1
 + xp_13_0 + xp_9_0 <= 36044.4209413009
 r_13: + xp_129_0 + xp_128_2 + xp_123_1 + xp_119_2 + xp_109_1 + xp_100_0
 + xp_95_1 + xp_91_0 + xp_90_0 + xp_80_0 + xp_79_0 + xp_68_0 + xp_63_0
 + xp_60_0 + xp_53_1 + xp_45_2 + xp_40_2 + xp_34_1 + xp_31_0 + xp_30_0
 + xp_18_2 + xp_17_0 + xp_13_2 + xp_9_1 <= 36327.4587833997
 r_14: + xp_131_2 + xp_131_1 + xp_131_0 + xp_126_2 + xp_125_1 + xp_125_0
 + xp_124_1 + xp_124_0 + xp_115_1 + xp_115_0 + xp_106_1 + xp_99_2
 + xp_99_1 + xp_98_2 + xp_98_1 + xp_94_2 + xp_94_0 + xp_86_1 + xp_86_0
 + xp_85_2 + xp_85_1 + xp_77_2 + xp_77_1 + xp_77_0 + xp_68_1 + xp_65_0
 + xp_56_0 + xp_51_0 + xp_48_1 + xp_41_1 + xp_41_0 + xp_38_1 + xp_38_0
 + xp_35_0 + xp_32_1 + xp_30_2 + xp_30_1 + xp_26_2 + xp_26_1 + xp_24_2
 + xp_24_1 + xp_20_0 + xp_19_1 + xp_19_0 + xp_12_1 + xp_12_0 + xp_2_1
 + xp_0_0 <= 35837.0814592704
 r_15: + xp_131_1 + xp_131_0 + xp_126_2 + xp_125_0 + xp_124_1 + xp_124_0
 + xp_116_0 + xp_115_0 + xp_109_1 + xp_99_2 + xp_98_2 + xp_94_0
 + xp_90_0 + xp_89_0 + xp_86_0 + xp_85_2 + xp_85_1 + xp_77_2 + xp_77_0
 + xp_68_1 + xp_68_0 + xp_65_0 + xp_51_0 + xp_48_1 + xp_42_1 + xp_42_0
 + xp_38_0 + xp_36_0 + xp_32_1 + xp_28_0 + xp_26_2 + xp_26_1 + xp_24_2
 + xp_24_1 + xp_19_1 + xp_12_0 + xp_11_1 + xp_0_0 <= 36044.4209413009
 r_16: + xp_128_0 + xp_123_0 + xp_108_2 + xp_108_0 + xp_78_2 + xp_78_1
 + xp_78_0 + xp_73_0 + xp_67_0 + xp_57_0 + xp_46_0 + xp_44_0 + xp_40_0
 + xp_22_0 + xp_18_0 + xp_13_0 + xp_6_0 <= 36044.4209413009
 r_17: + xp_129_1 + xp_128_1 + xp_126_0 + xp_119_1 + xp_112_1 + xp_111_1
 + xp_109_0 + xp_97_0 + xp_95_0 + xp_91_1 + xp_81_1 + xp_80_1 + xp_79_1
 + xp_63_1 + xp_62_0 + xp_61_0 + xp_60_1 + xp_47_0 + xp_45_1 + xp_40_1
 + xp_22_1 + xp_18_1 + xp_17_1 + xp_13_1 + xp_9_0 + xp_1_0
 <= 34953.0251785043
 r_18: + xp_126_1 + xp_126_0 + xp_106_0 + xp_99_0 + xp_98_0 + xp_94_1
 + xp_92_0 + xp_85_0 + xp_68_0 + xp_58_0 + xp_48_0 + xp_32_0 + xp_30_0
 + xp_26_0 + xp_24_0 + xp_5_0 + xp_2_0 <= 36327.4587833997
 r_19: + xp_131_2 + xp_125_1 + xp_116_1 + xp_115_1 + xp_110_0 + xp_108_2
 + xp_106_1 + xp_99_1 + xp_98_1 + xp_94_2 + xp_86_1 + xp_78_0 + xp_77_1
 + xp_56_0 + xp_42_2 + xp_38_1 + xp_28_1 + xp_19_0 + xp_14_0 + xp_12_1
 + xp_11_0 + xp_3_0 + xp_2_1 <= 36327.4587833997
 r_20: + xp_129_0 + xp_128_2 + xp_123_1 + xp_119_2 + xp_119_0 + xp_112_0
 + xp_111_0 + xp_108_1 + xp_108_0 + xp_107_0 + xp_95_1 + xp_91_2
 + xp_91_0 + xp_82_1 + xp_81_0 + xp_80_0 + xp_79_0 + xp_78_3 + xp_78_1
 + xp_69_0 + xp_64_0 + xp_63_0 + xp_60_0 + xp_50_0 + xp_49_0 + xp_45_2
 + xp_45_0 + xp_40_2 + xp_18_2 + xp_17_0 + xp_14_1 + xp_13_2 + xp_10_0
 + xp_9_1 + xp_4_0 <= 34953.0251785043
 r_21: + xp_124_1 + xp_113_0 + xp_105_1 + xp_99_2 + xp_99_1 + xp_86_1
 + xp_86_0 + xp_85_2 + xp_83_1 + xp_77_2 + xp_77_1 + xp_77_0 + xp_65_0
 + xp_48_1 + xp_41_1 + xp_38_1 + xp_38_0 + xp_30_2 + xp_26_2 + xp_24_2
 + xp_20_0 + xp_2_1 + xp_0_0 <= 35837.0814592704
 r_22: + xp_126_2 + xp_124_0 + xp_106_1 + xp_105_0 + xp_98_2 + xp_98_1
 + xp_94_2 + xp_94_0 + xp_85_1 + xp_83_0 + xp_68_1 + xp_41_0 + xp_32_1
 + xp_30_1 + xp_26_1 + xp_24_1 <= 35837.0814592704
 r_23: + xp_128_2 + xp_128_1 + xp_128_0 + xp_119_2 + xp_119_1 + xp_117_0
 + xp_112_1 + xp_111_1 + xp_104_1 + xp_104_0 + xp_100_0 + xp_95_1
 + xp_95_0 + xp_91_1 + xp_91_0 + xp_84_0 + xp_82_0 + xp_81_1 + xp_80_1
 + xp_80_0 + xp_79_1 + xp_79_0 + xp_78_2 + xp_73_0 + xp_60_1 + xp_60_0
 + xp_53_1 + xp_50_1 + xp_46_0 + xp_45_2 + xp_45_1 + xp_44_0 + xp_40_2
 + xp_40_1 + xp_40_0 + xp_34_1 + xp_21_0 + xp_18_2 + xp_18_1 + xp_18_0
 + xp_15_0 + xp_9_1 + xp_9_0 + xp_3_1 <= 35837.0814592704
 r_24: + xp_128_0 + xp_126_1 + xp_103_0 + xp_94_2 + xp_94_1 + xp_90_1
 + xp_61_1 + xp_40_0 + xp_39_0 + xp_38_1 + xp_22_0 + xp_18_0 + xp_13_0
 + xp_12_1 + xp_1_1 <= 39327.3986152324
 r_25: + xp_131_1 + xp_127_1 + xp_126_2 + xp_126_0 + xp_94_0 + xp_90_0
 + xp_89_0 + xp_77_0 + xp_74_0 + xp_61_0 + xp_42_0 + xp_38_0 + xp_32_1
 + xp_24_1 + xp_12_0 + xp_1_0 <= 36044.4209413009
 r_26: + xp_128_2 + xp_128_1 + xp_123_1 + xp_121_0 + xp_112_1 + xp_112_0
 + xp_108_1 + xp_107_0 + xp_81_1 + xp_81_0 + xp_79_1 + xp_79_0 + xp_78_3
 + xp_67_1 + xp_64_0 + xp_60_1 + xp_60_0 + xp_57_1 + xp_47_0 + xp_40_2
 + xp_40_1 + xp_37_0 + xp_29_0 + xp_25_0 + xp_22_1 + xp_18_2 + xp_18_1
 + xp_17_1 + xp_17_0 + xp_13_2 + xp_13_1 + xp_4_0 <= 34953.0251785043
 r_27: + xp_131_0 + xp_127_0 + xp_125_0 + xp_116_0 + xp_115_0 + xp_108_0
 + xp_99_2 + xp_98_2 + xp_86_0 + xp_85_2 + xp_85_1 + xp_82_1 + xp_78_1
 + xp_77_2 + xp_72_0 + xp_67_0 + xp_65_0 + xp_57_0 + xp_52_0 + xp_50_0
 + xp_48_1 + xp_42_1 + xp_28_0 + xp_26_2 + xp_26_1 + xp_24_2 + xp_23_0
 + xp_19_1 + xp_14_1 + xp_11_1 <= 34953.0251785043
 r_28: + xp_131_2 + xp_126_1 + xp_126_0 + xp_125_1 + xp_120_0 + xp_116_1
 + xp_115_1 + xp_109_0 + xp_99_1 + xp_99_0 + xp_98_1 + xp_98_0 + xp_96_0
 + xp_94_2 + xp_94_1 + xp_92_0 + xp_90_1 + xp_86_1 + xp_85_0 + xp_77_1
 + xp_75_0 + xp_58_0 + xp_54_0 + xp_48_0 + xp_42_2 + xp_38_1 + xp_32_0
 + xp_28_1 + xp_26_0 + xp_24_0 + xp_19_0 + xp_12_1 + xp_11_0
 <= 34953.0251785043
 r_29: + xp_129_1 + xp_129_0 + xp_95_1 + xp_95_0 + xp_93_0 + xp_87_0
 + xp_71_0 + xp_62_0 + xp_49_0 + xp_45_2 + xp_45_1 + xp_45_0 + xp_10_0
 + xp_9_1 + xp_9_0 + xp_1_1 + xp_1_0 <= 34953.0251785043
 r_30: + xp_125_1 + xp_125_0 + xp_121_0 + xp_102_0 + xp_99_2 + xp_99_1
 + xp_99_0 + xp_96_0 + xp_92_0 + xp_57_1 + xp_57_0 + xp_37_0 + xp_26_2
 + xp_26_1 + xp_26_0 + xp_23_0 + xp_11_1 + xp_11_0 <= 34953.0251785043

Bounds
 0 <= xp_0_0 <= 232.385040808025
 0 <= xp_1_0 <= 89.9031512623224
 0 <= xp_1_1 <= 89.9031512623224
 0 <= xp_2_0 <= 18.8785798980448
 0 <= xp_2_1 <= 94.3928994902242
 0 <= xp_3_0 <= 59.8488848114522
 0 <= xp_3_1 <= 119.697769622904
 0 <= xp_4_0 <= 776.931998165153
 0 <= xp_5_0 <= 1066.95891501718
 0 <= xp_6_0 <= 1764.76315766697
 0 <= xp_7_0 <= 628.608026587964
 0 <= xp_8_0 <= 1486.87478903593
 0 <= xp_9_0 <= 71.0570273755636
 0 <= xp_9_1 <= 35.5285136877818
 0 <= xp_10_0 <= 54.0068027799655
 0 <= xp_11_0 <= 20.4472871102033
 0 <= xp_11_1 <= 20.4472871102033
 0 <= xp_12_0 <= 1696.5298032733
 0 <= xp_12_1 <= 339.305960654659
 0 <= xp_13_0 <= 82.7195540976796
 0 <= xp_13_1 <= 124.079331146519
 0 <= xp_13_2 <= 41.3597770488398
 0 <= xp_14_0 <= 72.2038064410036
 0 <= xp_14_1 <= 144.407612882007
 0 <= xp_15_0 <= 499.433101669537
 0 <= xp_16_0 <= 2600.95983244043
 0 <= xp_17_0 <= 146.279242866169
 0 <= xp_17_1 <= 146.279242866169
 0 <= xp_18_0 <= 117.858595650029
 0 <= xp_18_1 <= 176.787893475043
 0 <= xp_18_2 <= 58.9292978250145
 0 <= xp_19_0 <= 521.308453276326
 0 <= xp_19_1 <= 521.308453276326
 0 <= xp_20_0 <= 126.318795925256
 0 <= xp_21_0 <= 270.358574012688
 0 <= xp_22_0 <= 404.510087328308
 0 <= xp_22_1 <= 809.020174656615
 0 <= xp_23_0 <= 51.2155858093663
 0 <= xp_24_0 <= 223.686829783367
 0 <= xp_24_1 <= 55.9217074458417
 0 <= xp_24_2 <= 55.9217074458417
 0 <= xp_25_0 <= 570.122294250526
 0 <= xp_26_0 <= 10.0830008395288
 0 <= xp_26_1 <= 2.52075020988221
 0 <= xp_26_2 <= 2.52075020988221
 0 <= xp_27_0 <= 332.868851749595
 0 <= xp_28_0 <= 438.372525770073
 0 <= xp_28_1 <= 219.186262885036
 0 <= xp_29_0 <= 2411.48163855255
 0 <= xp_30_0 <= 60.2167196060273
 0 <= xp_30_1 <= 90.3250794090409
 0 <= xp_30_2 <= 30.1083598030136
 0 <= xp_31_0 <= 187.79048130101
 0 <= xp_32_0 <= 1848.20756268338
 0 <= xp_32_1 <= 369.641512536675
 0 <= xp_33_0 <= 7940.49298517409
 0 <= xp_34_0 <= 83.8879705039769
 0 <= xp_34_1 <= 419.439852519885
 0 <= xp_35_0 <= 257.181433430557
 0 <= xp_36_0 <= 314.23910127141
 0 <= xp_37_0 <= 359.482781004146
 0 <= xp_38_0 <= 274.902415592733
 0 <= xp_38_1 <= 54.9804831185466
 0 <= xp_39_0 <= 1550.22892306627
 0 <= xp_40_0 <= 278.883686310487
 0 <= xp_40_1 <= 418.325529465731
 0 <= xp_40_2 <= 139.441843155244
 0 <= xp_41_0 <= 52.4921889199505
 0 <= xp_41_1 <= 26.2460944599752
 0 <= xp_42_0 <= 149.167827870626
 0 <= xp_42_1 <= 149.167827870626
 0 <= xp_42_2 <= 149.167827870626
 0 <= xp_43_0 <= 484.82789659082
 0 <= xp_44_0 <= 451.852589124207
 0 <= xp_45_0 <= 20.9665832907799
 0 <= xp_45_1 <= 13.9777221938533
 0 <= xp_45_2 <= 6.98886109692663
 0 <= xp_46_0 <= 1581.97090210401
 0 <= xp_47_0 <= 866.056205156611
 0 <= xp_48_0 <= 2386.54460321444
 0 <= xp_48_1 <= 477.308920642888
 0 <= xp_49_0 <= 86.7873741788629
 0 <= xp_50_0 <= 386.421270371556
 0 <= xp_50_1 <= 386.421270371556
 0 <= xp_51_0 <= 699.167395123808
 0 <= xp_52_0 <= 652.690386962204
 0 <= xp_53_0 <= 124.760907383526
 0 <= xp_53_1 <= 62.3804536917631
 0 <= xp_54_0 <= 3639.42236954847
 0 <= xp_55_0 <= 1167.83219809418
 0 <= xp_56_0 <= 94.3820808197955
 0 <= xp_57_0 <= 101.522403302724
 0 <= xp_57_1 <= 101.522403302724
 0 <= xp_58_0 <= 4479.96814983426
 0 <= xp_59_0 <= 10488.5495192183
 0 <= xp_60_0 <= 556.620593555534
 0 <= xp_60_1 <= 111.324118711107
 0 <= xp_61_0 <= 1192.33648661514
 0 <= xp_61_1 <= 1192.33648661514
 0 <= xp_62_0 <= 129.304748963571
 0 <= xp_63_0 <= 108.240797638933
 0 <= xp_63_1 <= 21.6481595277867
 0 <= xp_64_0 <= 979.846980725456
 0 <= xp_65_0 <= 514.752338996547
 0 <= xp_66_0 <= 1655.4513116556
 0 <= xp_67_0 <= 199.344821318839
 0 <= xp_67_1 <= 199.344821318839
 0 <= xp_68_0 <= 483.940765615669
 0 <= xp_68_1 <= 967.881531231337
 0 <= xp_69_0 <= 1693.48975688284
 0 <= xp_70_0 <= 622.441384443617
 0 <= xp_71_0 <= 69.8453362875516
 0 <= xp_72_0 <= 590.309933270441
 0 <= xp_73_0 <= 909.5472602799
 0 <= xp_74_0 <= 939.341878640482
 0 <= xp_75_0 <= 1738.27905245757
 0 <= xp_76_0 <= 1696.99500610173
 0 <= xp_77_0 <= 375.883885374023
 0 <= xp_77_1 <= 93.9709713435057
 0 <= xp_77_2 <= 93.9709713435057
 0 <= xp_78_0 <= 4597.59955340528
 0 <= xp_78_1 <= 4597.59955340528
 0 <= xp_78_2 <= 13792.7986602158
 0 <= xp_78_3 <= 4597.59955340528
 0 <= xp_79_0 <= 700.097800780675
 0 <= xp_79_1 <= 350.048900390338
 0 <= xp_80_0 <= 148.172510191187
 0 <= xp_80_1 <= 74.0862550955937
 0 <= xp_81_0 <= 171.454288953705
 0 <= xp_81_1 <= 85.7271444768523
 0 <= xp_82_0 <= 180.563609454652
 0 <= xp_82_1 <= 36.1127218909305
 0 <= xp_83_0 <= 413.922330601258
 0 <= xp_83_1 <= 82.7844661202517
 0 <= xp_84_0 <= 877.415809106723
 0 <= xp_85_0 <= 134.302974701621
 0 <= xp_85_1 <= 201.454462052432
 0 <= xp_85_2 <= 67.1514873508105
 0 <= xp_86_0 <= 140.8590889814
 0 <= xp_86_1 <= 28.1718177962801
 0 <= xp_87_0 <= 139.301200439671
 0 <= xp_88_0 <= 349.388961494188
 0 <= xp_88_1 <= 69.8777922988376
 0 <= xp_89_0 <= 2189.74216944634
 0 <= xp_90_0 <= 17833.1176811694
 0 <= xp_90_1 <= 3566.62353623389
 0 <= xp_91_0 <= 447.233016851161
 0 <= xp_91_1 <= 1341.69905055348
 0 <= xp_91_2 <= 894.466033702322
 0 <= xp_92_0 <= 65.9506149332271
 0 <= xp_93_0 <= 128.655628737851
 0 <= xp_94_0 <= 155.875403536407
 0 <= xp_94_1 <= 38.9688508841017
 0 <= xp_94_2 <= 38.9688508841017
 0 <= xp_95_0 <= 40.3320033581153
 0 <= xp_95_1 <= 20.1660016790576
 0 <= xp_96_0 <= 113.855687591418
 0 <= xp_97_0 <= 520.334772937745
 0 <= xp_98_0 <= 70.5593685358444
 0 <= xp_98_1 <= 47.0395790238963
 0 <= xp_98_2 <= 23.5197895119481
 0 <= xp_99_0 <= 2.69384893674107
 0 <= xp_99_1 <= 10.7753957469643
 0 <= xp_99_2 <= 2.69384893674107
 0 <= xp_100_0 <= 496.512060653794
 0 <= xp_101_0 <= 246.665685773881
 0 <= xp_102_0 <= 73.9997057321643
 0 <= xp_103_0 <= 1421.31364623813
 0 <= xp_104_0 <= 108.51126439965
 0 <= xp_104_1 <= 21.7022528799301
 0 <= xp_105_0 <= 1192.75841476186
 0 <= xp_105_1 <= 238.551682952372
 0 <= xp_106_0 <= 20.4472871102033
 0 <= xp_106_1 <= 20.4472871102033
 0 <= xp_107_0 <= 443.998234392986
 0 <= xp_108_0 <= 139.701491245532
 0 <= xp_108_1 <= 558.805964982127
 0 <= xp_108_2 <= 139.701491245532
 0 <= xp_109_0 <= 795.280463212193
 0 <= xp_109_1 <= 159.056092642439
 0 <= xp_110_0 <= 131.511757731022
 0 <= xp_111_0 <= 2406.28867674678
 0 <= xp_111_1 <= 481.257735349356
 0 <= xp_112_0 <= 3851.28439255329
 0 <= xp_112_1 <= 770.256878510658
 0 <= xp_113_0 <= 419.980786041318
 0 <= xp_114_0 <= 2367.21163915839
 0 <= xp_115_0 <= 72.7014652807228
 0 <= xp_115_1 <= 145.402930561446
 0 <= xp_116_0 <= 52.5571009425225
 0 <= xp_116_1 <= 105.114201885045
 0 <= xp_117_0 <= 1918.47482711765
 0 <= xp_118_0 <= 3114.47884300811
 0 <= xp_119_0 <= 20.6636605187769
 0 <= xp_119_1 <= 30.9954907781653
 0 <= xp_119_2 <= 10.3318302593884
 0 <= xp_120_0 <= 2141.9669208333
 0 <= xp_121_0 <= 74.583913935313
 0 <= xp_122_0 <= 2245.76124492604
 0 <= xp_123_0 <= 422.739547000632
 0 <= xp_123_1 <= 84.5479094001263
 0 <= xp_124_0 <= 113.271479388269
 0 <= xp_124_1 <= 22.6542958776538
 0 <= xp_125_0 <= 13.4692446837053
 0 <= xp_125_1 <= 13.4692446837053
 0 <= xp_126_0 <= 4175.90941743623
 0 <= xp_126_1 <= 12527.7282523087
 0 <= xp_126_2 <= 8351.81883487247
 0 <= xp_127_0 <= 379.648782683203
 0 <= xp_127_1 <= 189.824391341602
 0 <= xp_128_0 <= 66.8269272379501
 0 <= xp_128_1 <= 200.48078171385
 0 <= xp_128_2 <= 133.6538544759
 0 <= xp_129_0 <= 24.1797284080975
 0 <= xp_129_1 <= 24.1797284080975
 0 <= xp_130_0 <= 398.494906569962
 0 <= xp_131_0 <= 126.329614595685
 0 <= xp_131_1 <= 378.988843787054
 0 <= xp_131_2 <= 252.659229191369

End
